DIMACS2
40 218 200 215 98 253 263 78 127 307 59 38 80 255 259 193 278 74 299 1 180 252 279 104 220 219 249 285 189 229 313 184 214 266 136 79 133 12 44 222 167
p edge 320 537
e 0 46 1.0
e 1 128 45.0
e 1 148 37.0
e 1 212 33.0
e 1 168 32.0
e 1 180 14.0
e 1 98 3.0
e 2 313 31.0
e 2 55 2.0
e 2 312 8.0
e 3 300 1.0
e 4 125 2.0
e 5 84 1.0
e 6 264 2.0
e 7 177 1.0
e 8 183 1.0
e 9 79 21.0
e 10 187 2.0
e 11 22 1.0
e 12 236 16.0
e 12 29 13.0
e 12 174 48.0
e 12 74 19.0
e 12 210 20.0
e 12 313 46.0
e 12 70 45.0
e 12 173 5.0
e 12 298 49.0
e 13 185 1.0
e 14 69 1.0
e 15 208 1.0
e 16 157 1.0
e 17 82 1.0
e 18 261 1.0
e 19 25 1.0
e 20 26 1.0
e 21 268 1.0
e 22 157 1.0
e 23 62 2.0
e 24 318 1.0
e 25 162 1.0
e 26 143 1.0
e 27 117 1.0
e 28 65 1.0
e 29 193 30.0
e 30 181 1.0
e 31 14 1.0
e 32 256 2.0
e 33 262 1.0
e 34 165 5.0
e 34 281 6.0
e 35 221 1.0
e 36 120 1.0
e 37 149 1.0
e 38 53 39.0
e 38 55 14.0
e 38 132 24.0
e 38 96 43.0
e 38 172 3.0
e 38 74 16.0
e 38 153 39.0
e 38 291 30.0
e 39 290 2.0
e 40 145 1.0
e 41 223 1.0
e 42 263 15.0
e 43 152 1.0
e 44 70 27.0
e 44 31 2.0
e 44 304 43.0
e 44 228 31.0
e 44 98 5.0
e 44 114 28.0
e 44 214 27.0
e 44 293 43.0
e 44 74 28.0
e 45 274 1.0
e 46 214 12.0
e 47 39 5.0
e 47 234 1.0
e 48 313 42.0
e 49 59 39.0
e 50 184 30.0
e 50 276 10.0
e 50 258 10.0
e 51 211 1.0
e 52 23 1.0
e 53 259 47.0
e 54 259 33.0
e 55 165 5.0
e 56 54 1.0
e 57 84 1.0
e 58 230 1.0
e 59 306 31.0
e 59 180 20.0
e 59 184 29.0
e 59 33 33.0
e 59 154 33.0
e 59 269 10.0
e 59 124 14.0
e 60 182 1.0
e 61 235 1.0
e 62 153 10.0
e 63 75 1.0
e 64 51 1.0
e 65 286 2.0
e 66 72 1.0
e 67 236 1.0
e 68 56 1.0
e 69 144 1.0
e 70 262 3.0
e 71 1 25.0
e 72 256 2.0
e 73 169 1.0
e 74 65 42.0
e 74 178 22.0
e 74 118 20.0
e 74 16 27.0
e 74 83 11.0
e 75 244 1.0
e 76 176 1.0
e 77 97 2.0
e 78 190 11.0
e 78 122 19.0
e 78 214 49.0
e 78 12 46.0
e 78 239 43.0
e 78 136 37.0
e 79 253 24.0
e 79 4 26.0
e 79 34 39.0
e 79 206 45.0
e 79 101 38.0
e 79 158 10.0
e 79 278 1.0
e 79 37 25.0
e 80 182 36.0
e 80 229 22.0
e 80 153 11.0
e 80 278 32.0
e 80 218 48.0
e 80 225 32.0
e 80 47 40.0
e 80 310 16.0
e 80 41 43.0
e 81 27 1.0
e 82 140 1.0
e 83 301 1.0
e 84 32 2.0
e 85 257 2.0
e 86 36 1.0
e 87 36 1.0
e 88 289 1.0
e 89 120 1.0
e 90 242 1.0
e 91 243 1.0
e 92 30 1.0
e 93 284 2.0
e 94 93 1.0
e 95 254 1.0
e 96 284 1.0
e 97 171 1.0
e 98 311 45.0
e 98 259 40.0
e 98 287 30.0
e 98 159 23.0
e 98 180 4.0
e 98 2 49.0
e 99 133 44.0
e 100 187 1.0
e 101 150 1.0
e 102 200 14.0
e 103 238 1.0
e 104 231 23.0
e 104 229 38.0
e 104 164 12.0
e 104 255 14.0
e 104 218 20.0
e 104 259 33.0
e 104 260 23.0
e 104 240 12.0
e 104 309 41.0
e 105 155 1.0
e 106 42 1.0
e 107 0 1.0
e 108 28 1.0
e 109 78 17.0
e 110 136 39.0
e 111 78 49.0
e 112 49 1.0
e 113 162 1.0
e 114 123 2.0
e 115 87 1.0
e 116 267 1.0
e 117 223 1.0
e 118 219 31.0
e 118 307 10.0
e 119 138 1.0
e 120 230 1.0
e 121 222 48.0
e 122 207 1.0
e 123 243 1.0
e 124 222 44.0
e 125 205 1.0
e 126 128 1.0
e 127 171 31.0
e 127 1 37.0
e 127 245 48.0
e 127 255 31.0
e 127 198 14.0
e 127 66 32.0
e 127 248 47.0
e 127 296 2.0
e 128 311 1.0
e 129 134 1.0
e 130 252 47.0
e 130 126 7.0
e 130 166 4.0
e 131 32 1.0
e 132 98 48.0
e 133 46 26.0
e 133 184 48.0
e 133 90 2.0
e 133 196 18.0
e 133 226 43.0
e 133 263 44.0
e 133 319 41.0
e 133 186 22.0
e 134 303 4.0
e 135 280 1.0
e 136 34 44.0
e 136 50 41.0
e 136 88 8.0
e 136 98 25.0
e 136 91 16.0
e 136 184 15.0
e 137 13 1.0
e 138 8 1.0
e 139 197 1.0
e 140 7 1.0
e 141 204 1.0
e 142 283 1.0
e 143 73 1.0
e 144 64 2.0
e 145 301 1.0
e 146 65 1.0
e 147 89 1.0
e 148 135 5.0
e 149 142 1.0
e 150 93 1.0
e 151 99 1.0
e 152 95 1.0
e 153 59 23.0
e 154 161 1.0
e 155 72 1.0
e 156 10 1.0
e 157 7 1.0
e 158 156 1.0
e 159 151 1.0
e 160 110 1.0
e 161 167 18.0
e 162 26 1.0
e 163 70 11.0
e 164 61 1.0
e 165 155 1.0
e 166 151 1.0
e 167 148 9.0
e 167 5 20.0
e 167 180 37.0
e 167 271 11.0
e 167 285 36.0
e 167 200 10.0
e 167 38 17.0
e 167 104 1.0
e 168 127 42.0
e 168 40 5.0
e 169 8 1.0
e 170 160 2.0
e 171 109 1.0
e 172 224 1.0
e 173 150 1.0
e 174 209 1.0
e 175 67 1.0
e 176 29 8.0
e 177 115 1.0
e 178 1 23.0
e 179 150 1.0
e 180 253 31.0
e 180 17 16.0
e 180 3 20.0
e 180 295 12.0
e 180 278 23.0
e 181 282 1.0
e 182 49 1.0
e 183 237 1.0
e 184 47 47.0
e 184 214 22.0
e 184 278 12.0
e 184 294 45.0
e 185 288 1.0
e 186 9 1.0
e 187 102 1.0
e 188 121 3.0
e 189 318 27.0
e 189 292 14.0
e 189 43 49.0
e 189 167 3.0
e 189 175 35.0
e 189 129 40.0
e 189 130 42.0
e 189 44 19.0
e 189 45 3.0
e 190 261 1.0
e 191 27 1.0
e 192 316 1.0
e 193 309 23.0
e 193 127 13.0
e 193 18 4.0
e 193 74 28.0
e 193 92 8.0
e 193 105 8.0
e 193 106 43.0
e 193 107 37.0
e 194 301 2.0
e 195 19 1.0
e 196 217 1.0
e 197 1 48.0
e 198 179 1.0
e 199 68 1.0
e 200 89 34.0
e 200 131 40.0
e 200 52 17.0
e 200 180 27.0
e 200 6 33.0
e 200 57 12.0
e 200 108 26.0
e 201 170 1.0
e 202 21 1.0
e 203 64 1.0
e 204 71 2.0
e 205 277 1.0
e 206 315 1.0
e 207 184 22.0
e 208 53 1.0
e 209 208 1.0
e 210 224 1.0
e 211 150 2.0
e 212 10 2.0
e 213 48 1.0
e 214 275 18.0
e 214 191 34.0
e 214 299 3.0
e 214 305 36.0
e 214 218 25.0
e 215 89 10.0
e 215 76 31.0
e 215 111 6.0
e 215 77 3.0
e 215 313 33.0
e 215 113 38.0
e 215 59 28.0
e 215 20 36.0
e 215 116 7.0
e 216 255 22.0
e 217 250 2.0
e 218 42 3.0
e 218 313 23.0
e 218 263 40.0
e 218 78 23.0
e 218 136 23.0
e 218 79 34.0
e 219 139 30.0
e 219 222 37.0
e 219 299 17.0
e 219 263 14.0
e 219 214 11.0
e 219 313 22.0
e 219 188 2.0
e 219 141 2.0
e 220 146 22.0
e 220 80 38.0
e 220 189 30.0
e 220 192 14.0
e 220 81 11.0
e 220 168 44.0
e 220 184 25.0
e 220 229 4.0
e 220 215 49.0
e 221 68 3.0
e 222 249 29.0
e 222 252 13.0
e 222 118 28.0
e 222 218 33.0
e 222 133 22.0
e 223 46 1.0
e 224 11 1.0
e 225 222 2.0
e 226 199 1.0
e 227 251 1.0
e 228 301 1.0
e 229 257 48.0
e 229 193 31.0
e 229 137 48.0
e 229 219 29.0
e 229 299 28.0
e 229 195 15.0
e 230 247 2.0
e 231 308 1.0
e 232 147 1.0
e 233 303 10.0
e 234 270 1.0
e 235 119 2.0
e 236 181 1.0
e 237 58 1.0
e 238 231 1.0
e 239 29 6.0
e 240 93 1.0
e 241 270 1.0
e 242 223 1.0
e 243 273 1.0
e 244 136 13.0
e 245 123 1.0
e 246 297 1.0
e 247 204 2.0
e 248 203 1.0
e 249 272 31.0
e 249 299 38.0
e 249 200 25.0
e 249 220 36.0
e 249 302 46.0
e 249 229 3.0
e 249 232 44.0
e 249 252 47.0
e 250 279 20.0
e 251 94 1.0
e 252 204 27.0
e 252 253 16.0
e 252 255 27.0
e 252 259 35.0
e 252 263 40.0
e 252 265 47.0
e 253 216 16.0
e 253 222 49.0
e 253 249 14.0
e 253 255 43.0
e 253 302 42.0
e 254 221 1.0
e 255 227 32.0
e 255 259 36.0
e 255 263 4.0
e 255 266 2.0
e 256 317 1.0
e 257 250 1.0
e 258 35 1.0
e 259 202 15.0
e 260 93 1.0
e 261 267 1.0
e 262 0 1.0
e 263 202 15.0
e 263 253 5.0
e 263 259 17.0
e 264 24 2.0
e 265 73 1.0
e 266 161 43.0
e 266 252 38.0
e 266 263 35.0
e 266 278 28.0
e 266 279 10.0
e 266 299 11.0
e 266 285 31.0
e 266 307 45.0
e 267 56 1.0
e 268 233 1.0
e 269 253 23.0
e 270 203 2.0
e 271 112 2.0
e 272 285 28.0
e 273 267 1.0
e 274 241 1.0
e 275 194 1.0
e 276 100 1.0
e 277 42 1.0
e 278 303 1.0
e 278 255 12.0
e 278 279 11.0
e 279 302 19.0
e 279 285 5.0
e 279 299 13.0
e 279 307 13.0
e 279 313 26.0
e 279 314 13.0
e 280 93 1.0
e 281 182 1.0
e 282 151 1.0
e 283 103 1.0
e 284 246 1.0
e 285 112 3.0
e 285 278 35.0
e 285 299 23.0
e 285 307 20.0
e 285 313 12.0
e 286 60 1.0
e 287 227 2.0
e 288 315 2.0
e 289 89 1.0
e 290 289 1.0
e 291 102 2.0
e 292 64 1.0
e 293 235 1.0
e 294 213 2.0
e 295 243 1.0
e 296 163 1.0
e 297 318 1.0
e 298 144 1.0
e 299 282 5.0
e 299 307 44.0
e 300 102 2.0
e 301 278 24.0
e 302 103 8.0
e 303 156 4.0
e 304 63 1.0
e 305 74 25.0
e 306 46 1.0
e 307 38 35.0
e 307 313 19.0
e 308 54 3.0
e 309 201 5.0
e 310 15 1.0
e 311 259 40.0
e 312 28 1.0
e 313 85 29.0
e 314 78 47.0
e 315 86 3.0
e 316 27 1.0
e 317 99 3.0
e 318 259 30.0
e 319 0 1.0
